
Value of objective function: 1.68695652

Actual values of the variables:
score                     1.68696
x_0_t_1                       0.5
x_1_t_1                       0.5
x_0_t_0                         0
x_0_t_2                       0.5
x_0_t_3                       0.5
x_0_t_4                  0.565217
x_0_t_5                  0.565217
x_0_t_6                  0.565217
x_0_t_7                  0.565217
x_0_t_8                  0.565217
x_0_t_9                  0.565217
x_0_t_10                 0.565217
x_0_t_11                 0.565217
x_0_t_12                 0.565217
x_0_t_13                 0.565217
x_0_t_14                 0.565217
x_0_t_15                 0.565217
x_0_t_16                 0.565217
x_0_t_17                 0.565217
x_0_t_18                 0.565217
x_1_t_0                         0
x_1_t_2                  0.813043
x_1_t_3                  0.813043
x_1_t_4                  0.813043
x_1_t_5                  0.813043
x_1_t_6                  0.813043
x_1_t_7                  0.813043
x_1_t_8                  0.813043
x_1_t_9                  0.813043
x_1_t_10                 0.813043
x_1_t_11                 0.813043
x_1_t_12                 0.813043
x_1_t_13                 0.813043
x_1_t_14                 0.813043
x_1_t_15                 0.813043
x_1_t_16                 0.813043
x_1_t_17                 0.813043
x_1_t_18                 0.813043
x_10_t_0                        0
x_10_t_1                        0
x_10_t_2                        0
x_10_t_3                        0
x_10_t_4                        0
x_10_t_5                        0
x_10_t_6                        0
x_10_t_7                        0
x_10_t_8                        0
x_10_t_9                        0
x_10_t_10                0.147826
x_10_t_11                0.734783
x_10_t_12                0.734783
x_10_t_13                0.734783
x_10_t_14                0.734783
x_10_t_15                0.734783
x_10_t_16                0.734783
x_10_t_17                0.734783
x_10_t_18                0.734783
x_11_t_0                        0
x_11_t_1                        0
x_11_t_2                        0
x_11_t_3                        0
x_11_t_4                        0
x_11_t_5                        0
x_11_t_6                        0
x_11_t_7                        0
x_11_t_8                        0
x_11_t_9                        0
x_11_t_10                       0
x_11_t_11                0.265217
x_11_t_12                0.265217
x_11_t_13                0.265217
x_11_t_14                0.686957
x_11_t_15                0.686957
x_11_t_16                0.686957
x_11_t_17                0.686957
x_11_t_18                       1
x_12_t_0                        0
x_12_t_1                        0
x_12_t_2                        0
x_12_t_3                        0
x_12_t_4                        0
x_12_t_5                        0
x_12_t_6                        0
x_12_t_7                        0
x_12_t_8                        0
x_12_t_9                        0
x_12_t_10                       0
x_12_t_11                       0
x_12_t_12                0.217391
x_12_t_13                0.904348
x_12_t_14                0.904348
x_12_t_15                0.904348
x_12_t_16                0.904348
x_12_t_17                0.904348
x_12_t_18                       1
x_13_t_0                        0
x_13_t_1                        0
x_13_t_2                        0
x_13_t_3                        0
x_13_t_4                        0
x_13_t_5                        0
x_13_t_6                        0
x_13_t_7                        0
x_13_t_8                        0
x_13_t_9                        0
x_13_t_10                       0
x_13_t_11                       0
x_13_t_12                       0
x_13_t_13               0.0956522
x_13_t_14               0.0956522
x_13_t_15               0.0956522
x_13_t_16                0.734783
x_13_t_17                0.734783
x_13_t_18                       1
x_14_t_0                        0
x_14_t_1                        0
x_14_t_2                        0
x_14_t_3                        0
x_14_t_4                        0
x_14_t_5                        0
x_14_t_6                        0
x_14_t_7                        0
x_14_t_8                        0
x_14_t_9                        0
x_14_t_10                       0
x_14_t_11                       0
x_14_t_12                       0
x_14_t_13                       0
x_14_t_14                0.313043
x_14_t_15                       1
x_14_t_16                       1
x_14_t_17                       1
x_14_t_18                       1
x_15_t_0                        0
x_15_t_1                        0
x_15_t_2                        0
x_15_t_3                        0
x_15_t_4                        0
x_15_t_5                        0
x_15_t_6                        0
x_15_t_7                        0
x_15_t_8                        0
x_15_t_9                        0
x_15_t_10                       0
x_15_t_11                       0
x_15_t_12                       0
x_15_t_13                       0
x_15_t_14                       0
x_15_t_15                       0
x_15_t_16                       0
x_15_t_17                       0
x_15_t_18                       0
x_16_t_0                        0
x_16_t_1                        0
x_16_t_2                        0
x_16_t_3                        0
x_16_t_4                        0
x_16_t_5                        0
x_16_t_6                        0
x_16_t_7                        0
x_16_t_8                        0
x_16_t_9                        0
x_16_t_10                       0
x_16_t_11                       0
x_16_t_12                       0
x_16_t_13                       0
x_16_t_14                       0
x_16_t_15                       0
x_16_t_16                0.265217
x_16_t_17                0.952174
x_16_t_18                0.952174
x_17_t_0                        0
x_17_t_1                        0
x_17_t_2                        0
x_17_t_3                        0
x_17_t_4                        0
x_17_t_5                        0
x_17_t_6                        0
x_17_t_7                        0
x_17_t_8                        0
x_17_t_9                        0
x_17_t_10                       0
x_17_t_11                       0
x_17_t_12                       0
x_17_t_13                       0
x_17_t_14                       0
x_17_t_15                       0
x_17_t_16                       0
x_17_t_17               0.0478261
x_17_t_18                       1
x_2_t_0                         0
x_2_t_1                         0
x_2_t_2                  0.186957
x_2_t_3                  0.873913
x_2_t_4                  0.873913
x_2_t_5                  0.873913
x_2_t_6                  0.873913
x_2_t_7                  0.873913
x_2_t_8                  0.873913
x_2_t_9                  0.873913
x_2_t_10                 0.873913
x_2_t_11                 0.873913
x_2_t_12                 0.873913
x_2_t_13                 0.873913
x_2_t_14                 0.873913
x_2_t_15                 0.873913
x_2_t_16                 0.873913
x_2_t_17                 0.873913
x_2_t_18                 0.873913
x_3_t_0                         0
x_3_t_1                         0
x_3_t_2                         0
x_3_t_3                  0.126087
x_3_t_4                  0.126087
x_3_t_5                  0.126087
x_3_t_6                       0.5
x_3_t_7                       0.5
x_3_t_8                       0.5
x_3_t_9                       0.5
x_3_t_10                      0.5
x_3_t_11                      0.5
x_3_t_12                      0.5
x_3_t_13                      0.5
x_3_t_14                      0.5
x_3_t_15                      0.5
x_3_t_16                      0.5
x_3_t_17                      0.5
x_3_t_18                      0.5
x_4_t_0                         0
x_4_t_1                         0
x_4_t_2                         0
x_4_t_3                         0
x_4_t_4                  0.434783
x_4_t_5                  0.878261
x_4_t_6                  0.878261
x_4_t_7                  0.878261
x_4_t_8                  0.878261
x_4_t_9                  0.878261
x_4_t_10                 0.878261
x_4_t_11                 0.878261
x_4_t_12                 0.878261
x_4_t_13                 0.878261
x_4_t_14                 0.878261
x_4_t_15                 0.878261
x_4_t_16                 0.878261
x_4_t_17                 0.878261
x_4_t_18                 0.878261
x_5_t_0                         0
x_5_t_1                         0
x_5_t_2                         0
x_5_t_3                         0
x_5_t_4                         0
x_5_t_5                  0.121739
x_5_t_6                  0.121739
x_5_t_7                  0.808696
x_5_t_8                  0.943478
x_5_t_9                  0.943478
x_5_t_10                 0.943478
x_5_t_11                 0.943478
x_5_t_12                 0.943478
x_5_t_13                 0.943478
x_5_t_14                 0.943478
x_5_t_15                 0.943478
x_5_t_16                 0.943478
x_5_t_17                 0.943478
x_5_t_18                        1
x_6_t_0                         0
x_6_t_1                         0
x_6_t_2                         0
x_6_t_3                         0
x_6_t_4                         0
x_6_t_5                         0
x_6_t_6                       0.5
x_6_t_7                       0.5
x_6_t_8                       0.5
x_6_t_9                       0.5
x_6_t_10                      0.5
x_6_t_11                      0.5
x_6_t_12                      0.5
x_6_t_13                      0.5
x_6_t_14                      0.5
x_6_t_15                      0.5
x_6_t_16                      0.5
x_6_t_17                      0.5
x_6_t_18                      0.5
x_7_t_0                         0
x_7_t_1                         0
x_7_t_2                         0
x_7_t_3                         0
x_7_t_4                         0
x_7_t_5                         0
x_7_t_6                         0
x_7_t_7                       0.5
x_7_t_8                       0.5
x_7_t_9                  0.647826
x_7_t_10                 0.852174
x_7_t_11                 0.852174
x_7_t_12                 0.852174
x_7_t_13                 0.852174
x_7_t_14                 0.852174
x_7_t_15                 0.852174
x_7_t_16                 0.852174
x_7_t_17                 0.852174
x_7_t_18                        1
x_8_t_0                         0
x_8_t_1                         0
x_8_t_2                         0
x_8_t_3                         0
x_8_t_4                         0
x_8_t_5                         0
x_8_t_6                         0
x_8_t_7                         0
x_8_t_8                 0.0565217
x_8_t_9                  0.595652
x_8_t_10                 0.595652
x_8_t_11                 0.595652
x_8_t_12                 0.595652
x_8_t_13                 0.595652
x_8_t_14                 0.595652
x_8_t_15                 0.595652
x_8_t_16                 0.595652
x_8_t_17                 0.595652
x_8_t_18                        1
x_9_t_0                         0
x_9_t_1                         0
x_9_t_2                         0
x_9_t_3                         0
x_9_t_4                         0
x_9_t_5                         0
x_9_t_6                         0
x_9_t_7                         0
x_9_t_8                         0
x_9_t_9                  0.404348
x_9_t_10                 0.404348
x_9_t_11                 0.504348
x_9_t_12                 0.782609
x_9_t_13                 0.782609
x_9_t_14                 0.782609
x_9_t_15                 0.782609
x_9_t_16                 0.782609
x_9_t_17                 0.782609
x_9_t_18                        1
